(set-logic QF_S)
(declare-fun var0 () String)
(declare-fun var1 () String)
(declare-fun var2 () String)
(declare-fun var3 () Int)
(declare-fun var4 () Int)
(declare-fun var5 () String)
(declare-fun var6 () Int)
(declare-fun var7 () Int)
(assert (> (str.indexof (str.replace var0 var1 "~e.wOVzt>") (str.substr var2 var3 var4) (str.indexof var5 var5 var6)) (str.len var5)))
(assert (str.contains (str.replace var1 var1 var0) (str.substr var5 var7 var3)))
(assert (not (str.suffixof (str.at var2 var4) (str.replace var1 var0 var2))))
(assert (<= 121 var7))
(check-sat)